c Nemesis formula in 6CNF in accordance with DIMACS CNF format:
c    Filename: MCNC/c2670/c2670.tdl
c    Formula number 461
c    4859 variables (range: 2 - 4860)
c    2169 clauses
c
c p cnf 4860 2169
p cnf 837 2169
398	0
837	0
398	0
399	0
-397	0
400	-402	0
-400	402	0
397	399	0
-397	-399	0
817	-415	0
-817	415	0
817	-415	0
-817	415	0
400	397	0
-400	-397	0
817	-402	0
-817	402	0
817	-399	0
-817	399	0
402	-399	0
-402	399	0
128	131	0
-132	-819	0
130	-819	0
132	-820	0
-130	-820	0
-820	818	0
-819	818	0
758	130	0
-758	-130	0
-759	131	0
760	132	0
-760	-132	0
762	758	0
-762	-758	0
-763	759	0
764	760	0
-764	-760	0
564	-762	0
-564	762	0
564	-765	0
-564	765	0
565	-763	0
565	-766	0
566	-764	0
-566	764	0
566	-767	0
-566	767	0
-470	-564	0
-567	-564	0
-570	-564	0
-571	-564	0
-568	565	0
-568	-571	0
-568	-570	0
-568	-470	0
-470	-566	0
-569	-566	0
-570	-566	0
-571	-566	0
-478	-815	0
573	-815	0
478	-816	0
-573	-816	0
-816	571	0
-815	571	0
60	-572	0
-60	572	0
60	-573	0
-60	573	0
60	-787	0
-60	787	0
60	-797	0
-60	797	0
287	-481	0
-287	481	0
287	-482	0
-287	482	0
287	-655	0
-287	655	0
288	287	0
281	287	0
284	287	0
289	287	0
292	289	0
125	289	0
293	289	0
104	-141	0
-104	141	0
104	-142	0
-104	142	0
104	-147	0
-104	147	0
104	-149	0
-104	149	0
104	-155	0
-104	155	0
104	-162	0
-104	162	0
104	-165	0
-104	165	0
104	-170	0
-104	170	0
104	-212	0
-104	212	0
104	-223	0
-104	223	0
104	-283	0
-104	283	0
104	-293	0
-104	293	0
104	-298	0
-104	298	0
104	-300	0
-104	300	0
104	-304	0
-104	304	0
104	-345	0
-104	345	0
104	-349	0
-104	349	0
104	-353	0
-104	353	0
104	-372	0
-104	372	0
104	-376	0
-104	376	0
104	-466	0
-104	466	0
138	-139	0
-138	139	0
138	-140	0
-138	140	0
138	-144	0
-138	144	0
138	-146	0
-138	146	0
138	-159	0
-138	159	0
138	-161	0
-138	161	0
138	-215	0
-138	215	0
138	-218	0
-138	218	0
138	-222	0
-138	222	0
138	-225	0
-138	225	0
138	-290	0
-138	290	0
138	-292	0
-138	292	0
138	-295	0
-138	295	0
138	-297	0
-138	297	0
138	-373	0
-138	373	0
138	-375	0
-138	375	0
138	-465	0
-138	465	0
138	-468	0
-138	468	0
377	138	0
-377	-138	0
54	-150	0
-54	150	0
54	-151	0
-54	151	0
54	-154	0
-54	154	0
54	-156	0
-54	156	0
54	-164	0
-54	164	0
54	-166	0
-54	166	0
54	-169	0
-54	169	0
54	-171	0
-54	171	0
54	-211	0
-54	211	0
54	-213	0
-54	213	0
54	-229	0
-54	229	0
54	-282	0
-54	282	0
54	-285	0
-54	285	0
54	-299	0
-54	299	0
54	-301	0
-54	301	0
54	-303	0
-54	303	0
54	-346	0
-54	346	0
54	-348	0
-54	348	0
54	-350	0
-54	350	0
54	-352	0
-54	352	0
54	-368	0
-54	368	0
54	-371	0
-54	371	0
54	-377	0
-54	377	0
285	284	0
36	284	0
286	284	0
143	-152	0
-143	152	0
143	-153	0
-143	153	0
143	-157	0
-143	157	0
143	-160	0
-143	160	0
143	-167	0
-143	167	0
143	-172	0
-143	172	0
143	-214	0
-143	214	0
143	-216	0
-143	216	0
143	-219	0
-143	219	0
143	-226	0
-143	226	0
143	-230	0
-143	230	0
143	-286	0
-143	286	0
143	-291	0
-143	291	0
143	-296	0
-143	296	0
143	-302	0
-143	302	0
143	-347	0
-143	347	0
143	-351	0
-143	351	0
143	-369	0
-143	369	0
143	-374	0
-143	374	0
143	-469	0
-143	469	0
353	143	0
-353	-143	0
282	281	0
91	281	0
283	281	0
290	288	0
124	288	0
291	288	0
89	-362	0
-89	362	0
89	-363	0
-89	363	0
89	-449	0
-89	449	0
89	-456	0
-89	456	0
89	-462	0
-89	462	0
89	-472	0
-89	472	0
89	-476	0
-89	476	0
89	-480	0
-89	480	0
89	-485	0
-89	485	0
356	-360	0
-356	360	0
356	-361	0
-356	361	0
356	-455	0
-356	455	0
356	-461	0
-356	461	0
356	-471	0
-356	471	0
356	-475	0
-356	475	0
356	-479	0
-356	479	0
356	-484	0
-356	484	0
449	356	0
-449	-356	0
553	570	0
-553	-570	0
-554	-553	0
-555	-553	0
752	555	0
-652	-752	0
-483	-809	0
780	-809	0
483	-810	0
-780	-810	0
-810	652	0
-809	652	0
29	-780	0
-29	780	0
29	-781	0
-29	781	0
29	-784	0
-29	784	0
29	-798	0
-29	798	0
457	-486	0
-457	486	0
457	-487	0
-457	487	0
457	-575	0
-457	575	0
457	-654	0
-457	654	0
467	457	0
168	457	0
464	457	0
465	464	0
74	464	0
466	464	0
468	467	0
47	467	0
469	467	0
460	-792	0
-460	792	0
460	-793	0
-460	793	0
358	-365	0
-358	365	0
358	-366	0
-358	366	0
358	-463	0
-358	463	0
358	-563	0
-358	563	0
294	358	0
370	358	0
367	358	0
368	367	0
118	367	0
369	367	0
371	370	0
15	370	0
372	370	0
789	788	0
-789	-788	0
80	-744	0
-80	744	0
80	-745	0
-80	745	0
80	-786	0
-80	786	0
80	-789	0
-80	789	0
80	-791	0
-80	791	0
80	-799	0
-80	799	0
792	790	0
-792	-790	0
757	751	0
-757	-751	0
359	-756	0
-359	756	0
359	-757	0
-359	757	0
208	-272	0
-208	272	0
208	-273	0
-208	273	0
208	-343	0
-208	343	0
208	-364	0
-208	364	0
209	208	0
210	208	0
137	208	0
139	137	0
24	137	0
141	137	0
215	209	0
45	209	0
216	209	0
3	-274	0
-3	274	0
3	-275	0
-3	275	0
3	-725	0
-3	725	0
3	-750	0
-3	750	0
3	-755	0
-3	755	0
3	-795	0
-3	795	0
747	-753	0
-747	753	0
747	-754	0
-747	754	0
750	747	0
-750	-747	0
558	554	0
77	-561	0
-77	561	0
77	-562	0
-77	562	0
77	-693	0
-77	693	0
77	-696	0
-77	696	0
77	-796	0
-77	796	0
231	-276	0
-231	276	0
231	-277	0
-231	277	0
231	-344	0
-231	344	0
231	-477	0
-231	477	0
158	231	0
232	231	0
228	231	0
229	228	0
120	228	0
230	228	0
303	232	0
93	232	0
304	232	0
559	556	0
-559	-556	0
454	-559	0
-454	559	0
454	-560	0
-454	560	0
220	-458	0
-220	458	0
220	-459	0
-220	459	0
217	220	0
148	220	0
145	220	0
146	145	0
78	145	0
147	145	0
218	217	0
85	217	0
219	217	0
59	-782	0
-59	782	0
59	-783	0
-59	783	0
59	-785	0
-59	785	0
59	-800	0
-59	800	0
557	-738	0
-557	738	0
557	-739	0
-557	739	0
557	-742	0
-557	742	0
785	557	0
-785	-557	0
587	567	0
-588	568	0
-583	-577	0
-578	-582	0
589	569	0
-590	-587	0
-594	-587	0
-597	-587	0
-600	-587	0
-591	588	0
-595	588	0
-598	588	0
-601	588	0
-592	-589	0
-596	-589	0
-599	-589	0
-602	-589	0
-400	-807	0
656	-807	0
400	-808	0
-656	-808	0
-808	600	0
-807	600	0
-401	601	0
-402	-821	0
656	-821	0
402	-822	0
-656	-822	0
-822	602	0
-821	602	0
61	-540	0
-61	540	0
61	-541	0
-61	541	0
61	-613	0
-61	613	0
61	-656	0
-61	656	0
-407	401	0
-451	412	0
-413	450	0
-407	21	0
241	-450	0
-241	450	0
241	-453	0
-241	453	0
241	-552	0
-241	552	0
241	-612	0
-241	612	0
241	-692	0
-241	692	0
173	241	0
236	241	0
233	241	0
234	233	0
103	233	0
235	233	0
58	-178	0
-58	178	0
58	-179	0
-58	179	0
58	-183	0
-58	183	0
58	-189	0
-58	189	0
58	-197	0
-58	197	0
58	-200	0
-58	200	0
58	-205	0
-58	205	0
58	-235	0
-58	235	0
58	-244	0
-58	244	0
58	-247	0
-58	247	0
58	-256	0
-58	256	0
58	-261	0
-58	261	0
58	-266	0
-58	266	0
58	-269	0
-58	269	0
58	-305	0
-58	305	0
58	-308	0
-58	308	0
58	-322	0
-58	322	0
58	-383	0
-58	383	0
58	-385	0
-58	385	0
58	-389	0
-58	389	0
58	-393	0
-58	393	0
193	-195	0
-193	195	0
193	-196	0
-193	196	0
193	-234	0
-193	234	0
193	-237	0
-193	237	0
193	-243	0
-193	243	0
193	-246	0
-193	246	0
193	-249	0
-193	249	0
193	-263	0
-193	263	0
193	-265	0
-193	265	0
193	-268	0
-193	268	0
193	-307	0
-193	307	0
193	-310	0
-193	310	0
193	-313	0
-193	313	0
193	-321	0
-193	321	0
193	-324	0
-193	324	0
193	-332	0
-193	332	0
193	-379	0
-193	379	0
193	-382	0
-193	382	0
193	-384	0
-193	384	0
193	-386	0
-193	386	0
428	193	0
-428	-193	0
87	-176	0
-87	176	0
87	-177	0
-87	177	0
87	-180	0
-87	180	0
87	-182	0
-87	182	0
87	-184	0
-87	184	0
87	-188	0
-87	188	0
87	-190	0
-87	190	0
87	-199	0
-87	199	0
87	-201	0
-87	201	0
87	-204	0
-87	204	0
87	-206	0
-87	206	0
87	-240	0
-87	240	0
87	-255	0
-87	255	0
87	-257	0
-87	257	0
87	-260	0
-87	260	0
87	-318	0
-87	318	0
87	-328	0
-87	328	0
87	-388	0
-87	388	0
87	-390	0
-87	390	0
87	-392	0
-87	392	0
87	-428	0
-87	428	0
175	-185	0
-175	185	0
175	-186	0
-175	186	0
175	-191	0
-175	191	0
175	-194	0
-175	194	0
175	-202	0
-175	202	0
175	-207	0
-175	207	0
175	-238	0
-175	238	0
175	-239	0
-175	239	0
175	-250	0
-175	250	0
175	-258	0
-175	258	0
175	-264	0
-175	264	0
175	-311	0
-175	311	0
175	-314	0
-175	314	0
175	-319	0
-175	319	0
175	-325	0
-175	325	0
175	-329	0
-175	329	0
175	-333	0
-175	333	0
175	-380	0
-175	380	0
175	-387	0
-175	387	0
175	-391	0
-175	391	0
305	175	0
-305	-175	0
176	173	0
114	173	0
178	173	0
72	-409	0
-72	409	0
72	-412	0
-72	412	0
72	-415	0
-72	415	0
72	-422	0
-72	422	0
72	-435	0
-72	435	0
72	-494	0
-72	494	0
72	-507	0
-72	507	0
72	-516	0
-72	516	0
72	-528	0
-72	528	0
72	-537	0
-72	537	0
397	-403	0
-397	403	0
397	-406	0
-397	406	0
397	-419	0
-397	419	0
397	-432	0
-397	432	0
397	-491	0
-397	491	0
397	-504	0
-397	504	0
397	-513	0
-397	513	0
397	-525	0
-397	525	0
397	-534	0
-397	534	0
398	-404	0
398	-407	0
398	-420	0
398	-433	0
398	-492	0
398	-505	0
398	-514	0
398	-526	0
398	-535	0
399	-405	0
-399	405	0
399	-408	0
-399	408	0
399	-421	0
-399	421	0
399	-434	0
-399	434	0
399	-493	0
-399	493	0
399	-506	0
-399	506	0
399	-515	0
-399	515	0
399	-527	0
-399	527	0
399	-536	0
-399	536	0
415	397	0
-415	-397	0
621	597	0
-631	598	0
-619	598	0
-622	598	0
-619	-627	0
-631	-624	0
623	599	0
-707	-621	0
-708	622	0
-715	699	0
-700	714	0
-711	703	0
-704	710	0
-709	-623	0
-488	-803	0
728	-803	0
488	-804	0
-728	-804	0
-804	707	0
-803	707	0
-489	708	0
-490	-824	0
728	-824	0
490	-825	0
-728	-825	0
-825	709	0
-824	709	0
105	-727	0
-105	727	0
105	-728	0
-105	728	0
105	-731	0
-105	731	0
-492	489	0
-498	494	0
-495	497	0
-492	99	0
280	-341	0
-280	341	0
280	-342	0
-280	342	0
280	-497	0
-280	497	0
280	-548	0
-280	548	0
280	-550	0
-280	550	0
378	280	0
181	280	0
381	280	0
382	381	0
2	381	0
383	381	0
379	378	0
42	378	0
380	378	0
355	-713	0
-355	713	0
355	-714	0
-355	714	0
133	-278	0
-133	278	0
133	-279	0
-133	279	0
133	-354	0
-133	354	0
133	-357	0
-133	357	0
134	133	0
135	133	0
136	133	0
140	136	0
67	136	0
142	136	0
144	134	0
7	134	0
152	134	0
702	699	0
-702	-699	0
126	-270	0
-126	270	0
126	-271	0
-126	271	0
126	-702	0
-126	702	0
126	-710	0
-126	710	0
126	-724	0
-126	724	0
713	703	0
-713	-703	0
633	618	0
-633	-618	0
-634	619	0
635	620	0
-635	-620	0
416	-630	0
-416	630	0
416	-633	0
-416	633	0
417	-631	0
417	-634	0
418	-632	0
-418	632	0
418	-635	0
-418	635	0
-420	417	0
-426	422	0
-423	425	0
-420	121	0
326	-339	0
-326	339	0
326	-340	0
-326	340	0
326	-425	0
-326	425	0
326	-551	0
-326	551	0
326	-574	0
-326	574	0
326	-611	0
-326	611	0
326	-653	0
-326	653	0
323	326	0
254	326	0
320	326	0
321	320	0
65	320	0
322	320	0
324	323	0
33	323	0
325	323	0
66	-614	0
-66	614	0
66	-615	0
-66	615	0
66	-627	0
-66	627	0
438	-439	0
-438	439	0
438	-440	0
-438	440	0
438	-624	0
-438	624	0
615	438	0
-615	-438	0
675	594	0
678	594	0
603	594	0
665	594	0
-676	595	0
-679	595	0
-604	595	0
-666	595	0
677	596	0
680	596	0
605	596	0
667	596	0
740	665	0
672	665	0
-673	666	0
-673	740	0
740	667	0
674	667	0
522	-669	0
-522	669	0
522	-672	0
-522	672	0
523	-670	0
523	-673	0
524	-671	0
-524	671	0
524	-674	0
-524	674	0
-526	523	0
-647	528	0
-529	646	0
-526	69	0
251	-646	0
-251	646	0
251	-649	0
-251	649	0
251	-691	0
-251	691	0
251	-726	0
-251	726	0
251	-773	0
-251	773	0
251	-774	0
-251	774	0
251	-777	0
-251	777	0
248	251	0
198	251	0
242	251	0
243	242	0
28	242	0
244	242	0
249	248	0
116	248	0
250	248	0
668	-740	0
-668	740	0
668	-741	0
-668	741	0
668	-743	0
-668	743	0
734	668	0
-734	-668	0
1	-733	0
-1	733	0
1	-734	0
-1	734	0
1	-761	0
-1	761	0
-532	604	0
62	-694	0
-62	694	0
62	-695	0
-62	695	0
62	-697	0
-62	697	0
62	-735	0
-62	735	0
-535	532	0
-637	537	0
-538	636	0
-535	30	0
330	-636	0
-330	636	0
330	-639	0
-330	639	0
330	-642	0
-330	642	0
330	-690	0
-330	690	0
330	-769	0
-330	769	0
330	-770	0
-330	770	0
330	-772	0
-330	772	0
330	-775	0
-330	775	0
330	-776	0
-330	776	0
330	-778	0
-330	778	0
330	-779	0
-330	779	0
262	330	0
259	330	0
327	330	0
328	327	0
49	327	0
329	327	0
260	259	0
34	259	0
261	259	0
-681	-678	0
-606	-678	0
-657	-678	0
-682	679	0
-607	679	0
-658	679	0
-683	-680	0
-608	-680	0
-659	-680	0
-510	-805	0
661	-805	0
510	-806	0
-661	-806	0
-806	657	0
-805	657	0
-511	658	0
-512	-826	0
661	-826	0
512	-827	0
-661	-827	0
-827	659	0
-826	659	0
106	-660	0
-106	660	0
106	-661	0
-106	661	0
106	-706	0
-106	706	0
-514	511	0
-520	516	0
-517	519	0
-514	39	0
252	-335	0
-252	335	0
252	-336	0
-252	336	0
252	-519	0
-252	519	0
252	-609	0
-252	609	0
252	-644	0
-252	644	0
252	-684	0
-252	684	0
252	-717	0
-252	717	0
252	-723	0
-252	723	0
253	252	0
187	252	0
245	252	0
246	245	0
75	245	0
247	245	0
313	253	0
55	253	0
314	253	0
-429	-811	0
616	-811	0
429	-812	0
-616	-812	0
-812	606	0
-811	606	0
-430	607	0
-431	-828	0
616	-828	0
431	-829	0
-616	-829	0
-829	608	0
-828	608	0
92	-616	0
-92	616	0
92	-617	0
-92	617	0
92	-698	0
-92	698	0
92	-746	0
-92	746	0
-433	430	0
-543	435	0
-436	542	0
-433	4	0
334	-542	0
-334	542	0
334	-545	0
-334	545	0
334	-546	0
-334	546	0
334	-610	0
-334	610	0
334	-651	0
-334	651	0
334	-729	0
-334	729	0
334	-732	0
-334	732	0
331	334	0
203	334	0
267	334	0
268	267	0
25	267	0
269	267	0
332	331	0
95	331	0
333	331	0
-501	-801	0
737	-801	0
501	-802	0
-737	-802	0
-802	681	0
-801	681	0
-502	682	0
-503	-830	0
737	-830	0
503	-831	0
-737	-831	0
-831	683	0
-830	683	0
112	-736	0
-112	736	0
112	-737	0
-112	737	0
112	-748	0
-112	748	0
112	-749	0
-112	749	0
-505	502	0
-686	507	0
-508	685	0
-505	11	0
312	-685	0
-312	685	0
312	-688	0
-312	688	0
312	-689	0
-312	689	0
312	-721	0
-312	721	0
312	-768	0
-312	768	0
312	-771	0
-312	771	0
312	-794	0
-312	794	0
309	312	0
174	312	0
306	312	0
307	306	0
117	306	0
308	306	0
310	309	0
56	309	0
311	309	0
662	675	0
733	675	0
-663	676	0
-663	733	0
664	677	0
733	677	0
669	662	0
-669	-662	0
-670	663	0
671	664	0
-671	-664	0
-394	-813	0
593	-813	0
394	-814	0
-593	-814	0
-814	590	0
-813	590	0
-395	591	0
-396	-832	0
593	-832	0
396	-833	0
-593	-833	0
-833	592	0
-832	592	0
81	-337	0
-81	337	0
81	-338	0
-81	338	0
81	-593	0
-81	593	0
81	-730	0
-81	730	0
-404	395	0
-442	409	0
-410	441	0
-404	51	0
315	-441	0
-315	441	0
315	-444	0
-315	444	0
315	-448	0
-315	448	0
315	-547	0
-315	547	0
315	-549	0
-315	549	0
192	315	0
316	315	0
317	315	0
318	317	0
88	317	0
319	317	0
392	316	0
90	316	0
393	316	0
-586	-582	0
-640	-582	0
576	-640	0
-576	640	0
576	-641	0
-576	641	0
576	-645	0
-576	645	0
576	-718	0
-576	718	0
576	-720	0
-576	720	0
580	576	0
-580	-576	0
119	-580	0
-119	580	0
119	-581	0
-119	581	0
119	-643	0
-119	643	0
119	-650	0
-119	650	0
119	-719	0
-119	719	0
119	-722	0
-119	722	0
500	-585	0
-500	585	0
500	-586	0
-500	586	0
46	500	0
-46	-500	0
-585	-577	0
-581	-577	0
227	-445	0
-227	445	0
227	-446	0
-227	446	0
227	-447	0
-227	447	0
227	-473	0
-227	473	0
224	227	0
163	227	0
221	227	0
222	221	0
10	221	0
223	221	0
225	224	0
38	224	0
226	224	0
-129	-835	0
127	-835	0
129	-836	0
-127	-836	0
-836	834	0
-835	834	0
765	127	0
-765	-127	0
-766	128	0
767	129	0
-767	-129	0
-834	837	0
-818	837	0
817	412	21	0
817	450	21	0
-817	-406	-21	0
817	412	406	0
817	450	406	0
-817	-450	-412	0
817	412	21	0
817	450	21	0
-817	-408	-21	0
817	412	408	0
817	450	408	0
-817	-450	-412	0
819	132	-130	0
820	-132	130	0
-818	820	819	0
-131	130	132	0
-131	-130	-132	0
-759	758	760	0
-759	-758	-760	0
-565	763	766	0
-766	765	767	0
-766	-765	-767	0
-763	762	764	0
-763	-762	-764	0
-565	564	566	0
-565	-564	-566	0
815	478	-573	0
816	-478	573	0
-571	816	815	0
-479	-43	-478	0
-482	-480	-478	0
480	43	478	0
482	43	478	0
480	479	478	0
482	479	478	0
553	554	555	0
754	756	555	0
751	755	555	0
-791	-790	-752	0
-793	-788	-752	0
809	483	-780	0
810	-483	780	0
-652	810	809	0
-484	-115	-483	0
-487	-485	-483	0
485	115	483	0
487	115	483	0
485	484	483	0
487	484	483	0
171	169	168	0
107	169	168	0
172	169	168	0
171	79	168	0
107	79	168	0
172	79	168	0
171	170	168	0
107	170	168	0
172	170	168	0
-461	-37	-460	0
-463	-462	-460	0
462	37	460	0
463	37	460	0
462	461	460	0
463	461	460	0
297	295	294	0
94	295	294	0
298	295	294	0
297	86	294	0
94	86	294	0
298	86	294	0
297	296	294	0
94	296	294	0
298	296	294	0
-361	-44	-359	0
-364	-363	-359	0
363	44	359	0
364	44	359	0
363	361	359	0
364	361	359	0
213	211	210	0
64	211	210	0
214	211	210	0
213	98	210	0
64	98	210	0
214	98	210	0
213	212	210	0
64	212	210	0
214	212	210	0
738	560	554	0
556	782	554	0
562	474	558	0
-562	-474	558	0
-562	474	-558	0
562	-474	-558	0
-475	-97	-474	0
-477	-476	-474	0
476	97	474	0
477	97	474	0
476	475	474	0
477	475	474	0
161	159	158	0
18	159	158	0
162	159	158	0
161	20	158	0
18	20	158	0
162	20	158	0
161	160	158	0
18	160	158	0
162	160	158	0
-455	-50	-454	0
-458	-456	-454	0
456	50	454	0
458	50	454	0
456	455	454	0
458	455	454	0
151	150	148	0
17	150	148	0
153	150	148	0
151	113	148	0
17	113	148	0
153	113	148	0
151	149	148	0
17	149	148	0
153	149	148	0
582	577	567	0
-587	-577	-567	0
-587	-582	-567	0
-583	-584	589	0
-583	-582	587	0
-583	587	589	0
-578	-579	589	0
-578	-577	587	0
-578	587	589	0
-588	582	577	0
-568	567	569	0
-568	-567	-569	0
582	577	569	0
-589	-577	-569	0
-589	-582	-569	0
-601	-602	-597	0
-601	-600	-599	0
-601	-597	-599	0
-601	-602	-594	0
-601	-600	-596	0
-601	-594	-596	0
-601	-602	-590	0
-601	-600	-592	0
-601	-590	-592	0
-598	-599	-600	0
-598	-597	-602	0
-598	-600	-602	0
-598	-599	-594	0
-598	-597	-596	0
-598	-594	-596	0
-598	-599	-590	0
-598	-597	-592	0
-598	-590	-592	0
-595	-596	-600	0
-595	-594	-602	0
-595	-600	-602	0
-595	-596	-597	0
-595	-594	-599	0
-595	-597	-599	0
-595	-596	-590	0
-595	-594	-592	0
-595	-590	-592	0
-591	-592	-600	0
-591	-590	-602	0
-591	-600	-602	0
-591	-592	-597	0
-591	-590	-599	0
-591	-597	-599	0
-591	-592	-594	0
-591	-590	-596	0
-591	-594	-596	0
-588	587	589	0
-588	-587	-589	0
807	400	-656	0
808	-400	656	0
-600	808	807	0
-601	600	602	0
-601	-600	-602	0
821	402	-656	0
822	-402	656	0
-602	822	821	0
-406	-21	-400	0
-450	-412	-400	0
412	21	400	0
450	21	400	0
412	406	400	0
450	406	400	0
-22	-23	408	0
-22	-21	406	0
-22	406	408	0
-407	-450	-412	0
-22	-450	-412	0
-401	400	402	0
-401	-400	-402	0
-408	-21	-402	0
-450	-412	-402	0
412	21	402	0
450	21	402	0
412	408	402	0
450	408	402	0
-240	-239	-236	0
239	237	236	0
240	237	236	0
239	48	236	0
240	48	236	0
239	238	236	0
240	238	236	0
-535	534	536	0
-535	-534	-536	0
-526	525	527	0
-526	-525	-527	0
-514	513	515	0
-514	-513	-515	0
-505	504	506	0
-505	-504	-506	0
-492	491	493	0
-492	-491	-493	0
-433	432	434	0
-433	-432	-434	0
-420	419	421	0
-420	-419	-421	0
-407	406	408	0
-407	-406	-408	0
-404	403	405	0
-404	-403	-405	0
624	630	597	0
618	627	597	0
-628	-629	-618	0
-628	-627	-620	0
-628	-618	-620	0
-625	-626	-630	0
-625	-624	-632	0
-625	-630	-632	0
-619	-620	623	0
-619	-618	621	0
-619	621	623	0
-628	-629	623	0
-628	-627	621	0
-628	621	623	0
-625	-626	623	0
-625	-624	621	0
-625	621	623	0
-631	-632	623	0
-631	-630	621	0
-631	621	623	0
-598	597	599	0
-598	-597	-599	0
624	632	599	0
620	627	599	0
-710	-703	-621	0
-714	-699	-621	0
-715	-716	-707	0
-715	-714	-709	0
-715	-707	-709	0
-700	-701	-707	0
-700	-699	-709	0
-700	-707	-709	0
-711	-712	-707	0
-711	-710	-709	0
-711	-707	-709	0
-704	-705	-707	0
-704	-703	-709	0
-704	-707	-709	0
-708	-714	-699	0
-708	-710	-703	0
-715	-710	-703	0
-700	-710	-703	0
-711	-714	-699	0
-704	-714	-699	0
-622	621	623	0
-622	-621	-623	0
-710	-703	-623	0
-714	-699	-623	0
803	488	-728	0
804	-488	728	0
-707	804	803	0
-708	707	709	0
-708	-707	-709	0
824	490	-728	0
825	-490	728	0
-709	825	824	0
-491	-99	-488	0
-497	-494	-488	0
494	99	488	0
497	99	488	0
494	491	488	0
497	491	488	0
-100	-101	493	0
-100	-99	491	0
-100	491	493	0
-492	-497	-494	0
-100	-497	-494	0
-489	488	490	0
-489	-488	-490	0
-493	-99	-490	0
-497	-494	-490	0
494	99	490	0
497	99	490	0
494	493	490	0
497	493	490	0
184	182	181	0
108	182	181	0
186	182	181	0
184	27	181	0
108	27	181	0
186	27	181	0
184	183	181	0
108	183	181	0
186	183	181	0
-360	-109	-355	0
-357	-362	-355	0
362	109	355	0
357	109	355	0
362	360	355	0
357	360	355	0
156	154	135	0
73	154	135	0
157	154	135	0
156	9	135	0
73	9	135	0
157	9	135	0
156	155	135	0
73	155	135	0
157	155	135	0
-619	618	620	0
-619	-618	-620	0
-417	631	634	0
-634	633	635	0
-634	-633	-635	0
-631	630	632	0
-631	-630	-632	0
-419	-121	-416	0
-425	-422	-416	0
422	121	416	0
425	121	416	0
422	419	416	0
425	419	416	0
-122	-123	421	0
-122	-121	419	0
-122	419	421	0
-420	-425	-422	0
-122	-425	-422	0
-417	416	418	0
-417	-416	-418	0
-421	-121	-418	0
-425	-422	-418	0
422	121	418	0
425	121	418	0
422	421	418	0
425	421	418	0
257	255	254	0
57	255	254	0
258	255	254	0
257	19	254	0
57	19	254	0
258	19	254	0
257	256	254	0
57	256	254	0
258	256	254	0
-666	-667	605	0
-666	-665	603	0
-666	603	605	0
-666	-667	680	0
-666	-665	678	0
-666	678	680	0
-666	-667	677	0
-666	-665	675	0
-666	675	677	0
-604	-605	667	0
-604	-603	665	0
-604	665	667	0
-604	-605	680	0
-604	-603	678	0
-604	678	680	0
-604	-605	677	0
-604	-603	675	0
-604	675	677	0
-679	-680	667	0
-679	-678	665	0
-679	665	667	0
-679	-680	605	0
-679	-678	603	0
-679	603	605	0
-679	-680	677	0
-679	-678	675	0
-679	675	677	0
-676	-677	667	0
-676	-675	665	0
-676	665	667	0
-676	-677	605	0
-676	-675	603	0
-676	603	605	0
-676	-677	680	0
-676	-675	678	0
-676	678	680	0
-595	594	596	0
-595	-594	-596	0
-665	-740	-672	0
-666	665	667	0
-666	-665	-667	0
-667	-740	-674	0
-523	670	673	0
-673	672	674	0
-673	-672	-674	0
-670	669	671	0
-670	-669	-671	0
-525	-69	-522	0
-646	-528	-522	0
528	69	522	0
646	69	522	0
528	525	522	0
646	525	522	0
-70	-71	527	0
-70	-69	525	0
-70	525	527	0
-526	-646	-528	0
-70	-646	-528	0
-523	522	524	0
-523	-522	-524	0
-527	-69	-524	0
-646	-528	-524	0
528	69	524	0
646	69	524	0
528	527	524	0
646	527	524	0
201	199	198	0
68	199	198	0
202	199	198	0
201	14	198	0
68	14	198	0
202	14	198	0
201	200	198	0
68	200	198	0
202	200	198	0
694	531	603	0
-694	-531	603	0
-694	531	-603	0
694	-531	-603	0
-604	603	605	0
-604	-603	-605	0
694	533	605	0
-694	-533	605	0
-694	533	-605	0
694	-533	-605	0
-534	-30	-531	0
-636	-537	-531	0
537	30	531	0
636	30	531	0
537	534	531	0
636	534	531	0
-31	-32	536	0
-31	-30	534	0
-31	534	536	0
-535	-636	-537	0
-31	-636	-537	0
-532	531	533	0
-532	-531	-533	0
-536	-30	-533	0
-636	-537	-533	0
537	30	533	0
636	30	533	0
537	536	533	0
636	536	533	0
265	263	262	0
26	263	262	0
266	263	262	0
265	76	262	0
26	76	262	0
266	76	262	0
265	264	262	0
26	264	262	0
266	264	262	0
-658	-659	-606	0
-658	-657	-608	0
-658	-606	-608	0
-658	-659	-681	0
-658	-657	-683	0
-658	-681	-683	0
-607	-608	-657	0
-607	-606	-659	0
-607	-657	-659	0
-607	-608	-681	0
-607	-606	-683	0
-607	-681	-683	0
-682	-683	-657	0
-682	-681	-659	0
-682	-657	-659	0
-682	-683	-606	0
-682	-681	-608	0
-682	-606	-608	0
-679	678	680	0
-679	-678	-680	0
805	510	-661	0
806	-510	661	0
-657	806	805	0
-658	657	659	0
-658	-657	-659	0
826	512	-661	0
827	-512	661	0
-659	827	826	0
-513	-39	-510	0
-519	-516	-510	0
516	39	510	0
519	39	510	0
516	513	510	0
519	513	510	0
-40	-41	515	0
-40	-39	513	0
-40	513	515	0
-514	-519	-516	0
-40	-519	-516	0
-511	510	512	0
-511	-510	-512	0
-515	-39	-512	0
-519	-516	-512	0
516	39	512	0
519	39	512	0
516	515	512	0
519	515	512	0
190	188	187	0
63	188	187	0
191	188	187	0
190	16	187	0
63	16	187	0
191	16	187	0
190	189	187	0
63	189	187	0
191	189	187	0
811	429	-616	0
812	-429	616	0
-606	812	811	0
-607	606	608	0
-607	-606	-608	0
828	431	-616	0
829	-431	616	0
-608	829	828	0
-432	-4	-429	0
-542	-435	-429	0
435	4	429	0
542	4	429	0
435	432	429	0
542	432	429	0
-5	-6	434	0
-5	-4	432	0
-5	432	434	0
-433	-542	-435	0
-5	-542	-435	0
-430	429	431	0
-430	-429	-431	0
-434	-4	-431	0
-542	-435	-431	0
435	4	431	0
542	4	431	0
435	434	431	0
542	434	431	0
206	204	203	0
82	204	203	0
207	204	203	0
206	111	203	0
82	111	203	0
207	111	203	0
206	205	203	0
82	205	203	0
207	205	203	0
801	501	-737	0
802	-501	737	0
-681	802	801	0
-682	681	683	0
-682	-681	-683	0
830	503	-737	0
831	-503	737	0
-683	831	830	0
-504	-11	-501	0
-685	-507	-501	0
507	11	501	0
685	11	501	0
507	504	501	0
685	504	501	0
-12	-13	506	0
-12	-11	504	0
-12	504	506	0
-505	-685	-507	0
-12	-685	-507	0
-502	501	503	0
-502	-501	-503	0
-506	-11	-503	0
-685	-507	-503	0
507	11	503	0
685	11	503	0
507	506	503	0
685	506	503	0
180	177	174	0
8	177	174	0
185	177	174	0
180	35	174	0
8	35	174	0
185	35	174	0
180	179	174	0
8	179	174	0
185	179	174	0
-675	-662	-733	0
-676	675	677	0
-676	-675	-677	0
-677	-664	-733	0
-663	662	664	0
-663	-662	-664	0
813	394	-593	0
814	-394	593	0
-590	814	813	0
-591	590	592	0
-591	-590	-592	0
832	396	-593	0
833	-396	593	0
-592	833	832	0
-403	-51	-394	0
-441	-409	-394	0
409	51	394	0
441	51	394	0
409	403	394	0
441	403	394	0
-52	-53	405	0
-52	-51	403	0
-52	403	405	0
-404	-441	-409	0
-52	-441	-409	0
-395	394	396	0
-395	-394	-396	0
-405	-51	-396	0
-441	-409	-396	0
409	51	396	0
441	51	396	0
409	405	396	0
441	405	396	0
196	195	192	0
84	195	192	0
197	195	192	0
196	96	192	0
84	96	192	0
197	96	192	0
196	194	192	0
84	194	192	0
197	194	192	0
582	586	640	0
577	585	581	0
-471	-83	-470	0
-473	-472	-470	0
472	83	470	0
473	83	470	0
472	471	470	0
473	471	470	0
166	164	163	0
102	164	163	0
167	164	163	0
166	110	163	0
102	110	163	0
167	110	163	0
166	165	163	0
102	165	163	0
167	165	163	0
835	129	-127	0
836	-129	127	0
-834	836	835	0
-128	127	129	0
-128	-127	-129	0
-837	834	818	0
-289	-292	-125	-293	0
-284	-285	-36	-286	0
-281	-282	-91	-283	0
-288	-290	-124	-291	0
-752	-755	-756	-555	0
-752	-751	-756	-555	0
-752	-755	-754	-555	0
-752	-751	-754	-555	0
652	788	790	752	0
652	793	790	752	0
652	788	791	752	0
652	793	791	752	0
-457	-467	-168	-464	0
-464	-465	-74	-466	0
-170	-79	-169	-168	0
-172	-107	-171	-168	0
-467	-468	-47	-469	0
-358	-294	-370	-367	0
-367	-368	-118	-369	0
-370	-371	-15	-372	0
-296	-86	-295	-294	0
-298	-94	-297	-294	0
-208	-209	-210	-137	0
-137	-139	-24	-141	0
-212	-98	-211	-210	0
-214	-64	-213	-210	0
-209	-215	-45	-216	0
-558	-782	-560	-554	0
-558	-556	-560	-554	0
-558	-782	-738	-554	0
-558	-556	-738	-554	0
-231	-158	-232	-228	0
-228	-229	-120	-230	0
-232	-303	-93	-304	0
-160	-20	-159	-158	0
-162	-18	-161	-158	0
-220	-217	-148	-145	0
-145	-146	-78	-147	0
-149	-113	-150	-148	0
-153	-17	-151	-148	0
-217	-218	-85	-219	0
-451	-21	-452	-406	0
-451	-21	-450	-408	0
-451	-21	-406	-408	0
-413	-21	-414	-406	0
-413	-21	-412	-408	0
-413	-21	-406	-408	0
-241	-173	-236	-233	0
-233	-234	-103	-235	0
-238	-48	-237	-236	0
-173	-176	-114	-178	0
-621	-627	-630	-597	0
-621	-618	-630	-597	0
-621	-627	-624	-597	0
-621	-618	-624	-597	0
-622	627	-623	620	0
-622	627	-621	618	0
-622	627	618	620	0
-622	624	-623	632	0
-622	624	-621	630	0
-622	624	630	632	0
-619	624	-620	632	0
-619	624	-618	630	0
-619	624	630	632	0
-628	624	-629	632	0
-628	624	-627	630	0
-628	624	630	632	0
-625	627	-626	620	0
-625	627	-624	618	0
-625	627	618	620	0
-631	627	-632	620	0
-631	627	-630	618	0
-631	627	618	620	0
-623	-627	-632	-599	0
-623	-620	-632	-599	0
-623	-627	-624	-599	0
-623	-620	-624	-599	0
707	699	703	621	0
707	714	703	621	0
707	699	710	621	0
707	714	710	621	0
709	699	703	623	0
709	714	703	623	0
709	699	710	623	0
709	714	710	623	0
-498	-99	-499	-491	0
-498	-99	-497	-493	0
-498	-99	-491	-493	0
-495	-99	-496	-491	0
-495	-99	-494	-493	0
-495	-99	-491	-493	0
-280	-378	-181	-381	0
-381	-382	-2	-383	0
-183	-27	-182	-181	0
-186	-108	-184	-181	0
-378	-379	-42	-380	0
-133	-134	-135	-136	0
-136	-140	-67	-142	0
-155	-9	-154	-135	0
-157	-73	-156	-135	0
-134	-144	-7	-152	0
-426	-121	-427	-419	0
-426	-121	-425	-421	0
-426	-121	-419	-421	0
-423	-121	-424	-419	0
-423	-121	-422	-421	0
-423	-121	-419	-421	0
-326	-323	-254	-320	0
-320	-321	-65	-322	0
-256	-19	-255	-254	0
-258	-57	-257	-254	0
-323	-324	-33	-325	0
-647	-69	-648	-525	0
-647	-69	-646	-527	0
-647	-69	-525	-527	0
-529	-69	-530	-525	0
-529	-69	-528	-527	0
-529	-69	-525	-527	0
-251	-248	-198	-242	0
-242	-243	-28	-244	0
-200	-14	-199	-198	0
-202	-68	-201	-198	0
-248	-249	-116	-250	0
-637	-30	-638	-534	0
-637	-30	-636	-536	0
-637	-30	-534	-536	0
-538	-30	-539	-534	0
-538	-30	-537	-536	0
-538	-30	-534	-536	0
-330	-262	-259	-327	0
-327	-328	-49	-329	0
-259	-260	-34	-261	0
-264	-76	-263	-262	0
-266	-26	-265	-262	0
678	681	606	657	0
680	683	608	659	0
-520	-39	-521	-513	0
-520	-39	-519	-515	0
-520	-39	-513	-515	0
-517	-39	-518	-513	0
-517	-39	-516	-515	0
-517	-39	-513	-515	0
-252	-253	-187	-245	0
-245	-246	-75	-247	0
-189	-16	-188	-187	0
-191	-63	-190	-187	0
-253	-313	-55	-314	0
-543	-4	-544	-432	0
-543	-4	-542	-434	0
-543	-4	-432	-434	0
-436	-4	-437	-432	0
-436	-4	-435	-434	0
-436	-4	-432	-434	0
-334	-331	-203	-267	0
-267	-268	-25	-269	0
-205	-111	-204	-203	0
-207	-82	-206	-203	0
-331	-332	-95	-333	0
-686	-11	-687	-504	0
-686	-11	-685	-506	0
-686	-11	-504	-506	0
-508	-11	-509	-504	0
-508	-11	-507	-506	0
-508	-11	-504	-506	0
-312	-309	-174	-306	0
-306	-307	-117	-308	0
-179	-35	-177	-174	0
-185	-8	-180	-174	0
-309	-310	-56	-311	0
-442	-51	-443	-403	0
-442	-51	-441	-405	0
-442	-51	-403	-405	0
-410	-51	-411	-403	0
-410	-51	-409	-405	0
-410	-51	-403	-405	0
-315	-192	-316	-317	0
-317	-318	-88	-319	0
-316	-392	-90	-393	0
-194	-96	-195	-192	0
-197	-84	-196	-192	0
-227	-224	-163	-221	0
-221	-222	-10	-223	0
-165	-110	-164	-163	0
-167	-102	-166	-163	0
-224	-225	-38	-226	0
564	470	567	570	571	0
566	470	569	570	571	0
-287	-288	-281	-284	-289	0
587	590	594	597	600	0
589	592	596	599	602	0
-594	-675	-678	-603	-665	0
-596	-677	-680	-605	-667	0
-398	404	407	420	433	823	0
-823	492	505	514	526	535	0
